87, 181
96, 277
151, 271
420, 188
68, 328
346, 270
422, 338
72, 223
503, 327
425, 461
217, 231
292, 289
137, 354
430, 474
78, 496
421, 419
410, 488
141, 223
98, 287
340, 136
263, 233
364, 412
402, 434
415, 329
480, 354
100, 459
309, 492
99, 413
67, 366
263, 197
262, 140
503, 382
118, 339
347, 324
465, 400
171, 250
493, 244
510, 181
194, 305
340, 433
489, 251
485, 196
402, 453
309, 128
444, 449
505, 371
533, 361
130, 177
61, 175
516, 235
78, 229
398, 483
434, 131
505, 489
367, 409
241, 160
280, 198
82, 285
271, 311
310, 478
107, 144
144, 389
291, 226
483, 380
439, 407
209, 449
106, 122
200, 488
384, 222
364, 145
86, 108
281, 439
198, 420
282, 359
138, 486
267, 346
398, 461
473, 464
272, 210
550, 285
224, 301
318, 338
461, 141
316, 364
323, 272
114, 236
59, 366
524, 484